3
40
9372
[[362,767,666,997,561,748,249, 97,714,507,446,875,358,945, 22,164,297,418,458,273,747,657,200, 34,675,283,953,943,797,162,363,128,893,593,718,297,787,508,631,113],
 [638,233,334,  3,439,252,751,903,286,493,554,125,642, 55,978,836,703,582,542,727,253,343,800,966,325,717, 47, 57,203,838,637,872,107,407,282,703,213,492,369,887],
 [ 38, 25, 52,  2, 71, 67, 61, 20, 19, 91, 66, 79, 89, 28, 59, 98, 37, 14, 86, 68, 80, 40, 11, 51, 13, 68, 25, 48, 79, 18, 28, 74, 86, 50, 82,  3, 80, 84, 86, 69]]
[754,785,781,738,207,658,356,676,547, 25, 12,407,295,501,191, 21,287, 42,  1,872,431,981,249,269,987,909,440,142, 79,434,959,981,333,968,655,245,345,184,698,299]